Maximize
	+ 2 x1 - 3 x2 - 2 x3 + 2 x4 
Maximize
	+ 1 x1 
Maximize
	+ 1 x1 + 3 x2 + 3 x3 + 5 x4 
Subject To
	+ 3 x1 - 2 x2 + 2 x3 + 4 x4 <= 2
	+ 2 x1 - 4 x2 <= 9
	+ 4 x1 + 2 x3 <= 9
	- 1 x1 - 2 x2 + 6 x3 <= 7
	+ 6 x2 + 5 x3 - 3 x4 <= 5
Bounds
	0 <= x1 <= 4
	0 <= x2 <= 4
	0 <= x3 <= 4
	0 <= x4 <= 4
Integers
	x1 x2 x3 x4 
End